
;this file is automatically generated: Tue Mar 02 16:20:04 CST 2021

;declarations generated

(declare-fun oclExcludes ( Int Int) Bool)
(declare-fun obj_7ab2646e_8938_4666_a6f8_6b30ffb7c936 ( Int) Int)
(declare-fun Cardinality ( Int) Int)
(declare-fun type_85a8c775_0bf9_4db2_ad76_6da70a01839d_Class29 ( Int) Bool)
(declare-fun oclSelect ( Int Bool) Int)
(declare-fun type_85a8c775_0bf9_4db2_ad76_6da70a01839d_Class13 ( Int) Bool)
(declare-fun type_85a8c775_0bf9_4db2_ad76_6da70a01839d_Class12 ( Int) Bool)
(declare-fun type_85a8c775_0bf9_4db2_ad76_6da70a01839d_Class11 ( Int) Bool)
(declare-fun type_85a8c775_0bf9_4db2_ad76_6da70a01839d_Class10 ( Int) Bool)
(declare-fun type_85a8c775_0bf9_4db2_ad76_6da70a01839d_Class17 ( Int) Bool)
(declare-fun type_85a8c775_0bf9_4db2_ad76_6da70a01839d_Class16 ( Int) Bool)
(declare-fun type_85a8c775_0bf9_4db2_ad76_6da70a01839d_Class15 ( Int) Bool)
(declare-fun type_85a8c775_0bf9_4db2_ad76_6da70a01839d_Class14 ( Int) Bool)
(declare-fun type_85a8c775_0bf9_4db2_ad76_6da70a01839d_Class19 ( Int) Bool)
(declare-fun type_85a8c775_0bf9_4db2_ad76_6da70a01839d_Class18 ( Int) Bool)
(declare-fun class23_Class23IntAttr1 ( Int) Int)
(declare-fun type_85a8c775_0bf9_4db2_ad76_6da70a01839d_Class20 ( Int) Bool)
(declare-fun type_85a8c775_0bf9_4db2_ad76_6da70a01839d_Class24 ( Int) Bool)
(declare-fun type_85a8c775_0bf9_4db2_ad76_6da70a01839d_Class23 ( Int) Bool)
(declare-fun type_85a8c775_0bf9_4db2_ad76_6da70a01839d_Class22 ( Int) Bool)
(declare-fun type_85a8c775_0bf9_4db2_ad76_6da70a01839d_Class21 ( Int) Bool)
(declare-fun type_85a8c775_0bf9_4db2_ad76_6da70a01839d_Class28 ( Int) Bool)
(declare-fun type_85a8c775_0bf9_4db2_ad76_6da70a01839d_Class27 ( Int) Bool)
(declare-fun type_85a8c775_0bf9_4db2_ad76_6da70a01839d_Class26 ( Int) Bool)
(declare-fun type_85a8c775_0bf9_4db2_ad76_6da70a01839d_Class25 ( Int) Bool)
(declare-fun Enum0 ( Int) Int)
(declare-fun Enum1 ( Int) Int)
(declare-fun Enum2 ( Int) Int)
(declare-fun container_ ( Int) Int)
(declare-fun type_85a8c775_0bf9_4db2_ad76_6da70a01839d_Class0 ( Int) Bool)
(declare-fun type_85a8c775_0bf9_4db2_ad76_6da70a01839d_Class1 ( Int) Bool)
(declare-fun type_85a8c775_0bf9_4db2_ad76_6da70a01839d_Class2 ( Int) Bool)
(declare-fun type_85a8c775_0bf9_4db2_ad76_6da70a01839d_Class3 ( Int) Bool)
(declare-fun type_85a8c775_0bf9_4db2_ad76_6da70a01839d_Class4 ( Int) Bool)
(declare-fun type_85a8c775_0bf9_4db2_ad76_6da70a01839d_Class5 ( Int) Bool)
(declare-fun type_85a8c775_0bf9_4db2_ad76_6da70a01839d_Class6 ( Int) Bool)
(declare-fun type_85a8c775_0bf9_4db2_ad76_6da70a01839d_Class7 ( Int) Bool)
(declare-fun type_85a8c775_0bf9_4db2_ad76_6da70a01839d_Class8 ( Int) Bool)
(declare-fun oclIncludes ( Int Int) Bool)
(declare-fun type_85a8c775_0bf9_4db2_ad76_6da70a01839d_Class9 ( Int) Bool)
(declare-fun ObjAt ( Int Int) Int)

;formula(s) generated
(assert (forall ((p Int)) (=> ( type_85a8c775_0bf9_4db2_ad76_6da70a01839d_Class23 p )  (and (>= ( Enum2 ( obj_7ab2646e_8938_4666_a6f8_6b30ffb7c936 p )  )  0) (<= ( Enum2 ( obj_7ab2646e_8938_4666_a6f8_6b30ffb7c936 p )  )  5)))))
(assert (! (forall ((v Int)) (=> (and (and (and (and ( type_85a8c775_0bf9_4db2_ad76_6da70a01839d_Class23 v )  ( type_85a8c775_0bf9_4db2_ad76_6da70a01839d_Class25 v ) ) ( type_85a8c775_0bf9_4db2_ad76_6da70a01839d_Class13 v ) ) ( type_85a8c775_0bf9_4db2_ad76_6da70a01839d_Class0 v ) ) ( type_85a8c775_0bf9_4db2_ad76_6da70a01839d_Class21 v ) ) (or (not (= ( class23_Class23IntAttr1 ( obj_7ab2646e_8938_4666_a6f8_6b30ffb7c936 v )  )  19) ) (and (forall ((v Int)) (=> (and (and (and (and ( type_85a8c775_0bf9_4db2_ad76_6da70a01839d_Class23 v )  ( type_85a8c775_0bf9_4db2_ad76_6da70a01839d_Class25 v ) ) ( type_85a8c775_0bf9_4db2_ad76_6da70a01839d_Class13 v ) ) ( type_85a8c775_0bf9_4db2_ad76_6da70a01839d_Class0 v ) ) ( type_85a8c775_0bf9_4db2_ad76_6da70a01839d_Class21 v ) ) (not (= ( class23_Class23IntAttr1 ( obj_7ab2646e_8938_4666_a6f8_6b30ffb7c936 v )  )  11) ))) (forall ((v Int)) (=> (and (and (and (and ( type_85a8c775_0bf9_4db2_ad76_6da70a01839d_Class23 v )  ( type_85a8c775_0bf9_4db2_ad76_6da70a01839d_Class25 v ) ) ( type_85a8c775_0bf9_4db2_ad76_6da70a01839d_Class13 v ) ) ( type_85a8c775_0bf9_4db2_ad76_6da70a01839d_Class0 v ) ) ( type_85a8c775_0bf9_4db2_ad76_6da70a01839d_Class21 v ) ) (= ( Enum2 ( obj_7ab2646e_8938_4666_a6f8_6b30ffb7c936 v )  )  2))))))):named l0))
(assert (! (exists ((o Int)) (and ( type_85a8c775_0bf9_4db2_ad76_6da70a01839d_Class0 ( obj_7ab2646e_8938_4666_a6f8_6b30ffb7c936 o )  )  ( type_85a8c775_0bf9_4db2_ad76_6da70a01839d_Class25 ( obj_7ab2646e_8938_4666_a6f8_6b30ffb7c936 o )  ) )):named c0))
(assert (! (exists ((o Int)) ( type_85a8c775_0bf9_4db2_ad76_6da70a01839d_Class1 ( obj_7ab2646e_8938_4666_a6f8_6b30ffb7c936 o )  ) ):named c1))
(assert (! (exists ((o Int)) ( type_85a8c775_0bf9_4db2_ad76_6da70a01839d_Class10 ( obj_7ab2646e_8938_4666_a6f8_6b30ffb7c936 o )  ) ):named c2))
(assert (! (exists ((o Int)) ( type_85a8c775_0bf9_4db2_ad76_6da70a01839d_Class11 ( obj_7ab2646e_8938_4666_a6f8_6b30ffb7c936 o )  ) ):named c3))
(assert (! (exists ((o Int)) ( type_85a8c775_0bf9_4db2_ad76_6da70a01839d_Class12 ( obj_7ab2646e_8938_4666_a6f8_6b30ffb7c936 o )  ) ):named c4))
(assert (! (exists ((o Int)) (and (and ( type_85a8c775_0bf9_4db2_ad76_6da70a01839d_Class13 ( obj_7ab2646e_8938_4666_a6f8_6b30ffb7c936 o )  )  ( type_85a8c775_0bf9_4db2_ad76_6da70a01839d_Class25 ( obj_7ab2646e_8938_4666_a6f8_6b30ffb7c936 o )  ) ) ( type_85a8c775_0bf9_4db2_ad76_6da70a01839d_Class0 ( obj_7ab2646e_8938_4666_a6f8_6b30ffb7c936 o )  ) )):named c5))
(assert (! (exists ((o Int)) (and (and ( type_85a8c775_0bf9_4db2_ad76_6da70a01839d_Class14 ( obj_7ab2646e_8938_4666_a6f8_6b30ffb7c936 o )  )  ( type_85a8c775_0bf9_4db2_ad76_6da70a01839d_Class25 ( obj_7ab2646e_8938_4666_a6f8_6b30ffb7c936 o )  ) ) ( type_85a8c775_0bf9_4db2_ad76_6da70a01839d_Class17 ( obj_7ab2646e_8938_4666_a6f8_6b30ffb7c936 o )  ) )):named c6))
(assert (! (exists ((o Int)) ( type_85a8c775_0bf9_4db2_ad76_6da70a01839d_Class15 ( obj_7ab2646e_8938_4666_a6f8_6b30ffb7c936 o )  ) ):named c7))
(assert (! (exists ((o Int)) ( type_85a8c775_0bf9_4db2_ad76_6da70a01839d_Class16 ( obj_7ab2646e_8938_4666_a6f8_6b30ffb7c936 o )  ) ):named c8))
(assert (! (exists ((o Int)) (and ( type_85a8c775_0bf9_4db2_ad76_6da70a01839d_Class17 ( obj_7ab2646e_8938_4666_a6f8_6b30ffb7c936 o )  )  ( type_85a8c775_0bf9_4db2_ad76_6da70a01839d_Class25 ( obj_7ab2646e_8938_4666_a6f8_6b30ffb7c936 o )  ) )):named c9))
(assert (! (exists ((o Int)) (and (and ( type_85a8c775_0bf9_4db2_ad76_6da70a01839d_Class18 ( obj_7ab2646e_8938_4666_a6f8_6b30ffb7c936 o )  )  ( type_85a8c775_0bf9_4db2_ad76_6da70a01839d_Class25 ( obj_7ab2646e_8938_4666_a6f8_6b30ffb7c936 o )  ) ) ( type_85a8c775_0bf9_4db2_ad76_6da70a01839d_Class17 ( obj_7ab2646e_8938_4666_a6f8_6b30ffb7c936 o )  ) )):named c10))
(assert (! (exists ((o Int)) ( type_85a8c775_0bf9_4db2_ad76_6da70a01839d_Class19 ( obj_7ab2646e_8938_4666_a6f8_6b30ffb7c936 o )  ) ):named c11))
(assert (! (exists ((o Int)) ( type_85a8c775_0bf9_4db2_ad76_6da70a01839d_Class2 ( obj_7ab2646e_8938_4666_a6f8_6b30ffb7c936 o )  ) ):named c12))
(assert (! (exists ((o Int)) ( type_85a8c775_0bf9_4db2_ad76_6da70a01839d_Class20 ( obj_7ab2646e_8938_4666_a6f8_6b30ffb7c936 o )  ) ):named c13))
(assert (! (exists ((o Int)) (and (and (and ( type_85a8c775_0bf9_4db2_ad76_6da70a01839d_Class21 ( obj_7ab2646e_8938_4666_a6f8_6b30ffb7c936 o )  )  ( type_85a8c775_0bf9_4db2_ad76_6da70a01839d_Class25 ( obj_7ab2646e_8938_4666_a6f8_6b30ffb7c936 o )  ) ) ( type_85a8c775_0bf9_4db2_ad76_6da70a01839d_Class13 ( obj_7ab2646e_8938_4666_a6f8_6b30ffb7c936 o )  ) ) ( type_85a8c775_0bf9_4db2_ad76_6da70a01839d_Class0 ( obj_7ab2646e_8938_4666_a6f8_6b30ffb7c936 o )  ) )):named c14))
(assert (! (exists ((o Int)) ( type_85a8c775_0bf9_4db2_ad76_6da70a01839d_Class22 ( obj_7ab2646e_8938_4666_a6f8_6b30ffb7c936 o )  ) ):named c15))
(assert (! (exists ((o Int)) (and (and (and (and ( type_85a8c775_0bf9_4db2_ad76_6da70a01839d_Class23 ( obj_7ab2646e_8938_4666_a6f8_6b30ffb7c936 o )  )  ( type_85a8c775_0bf9_4db2_ad76_6da70a01839d_Class25 ( obj_7ab2646e_8938_4666_a6f8_6b30ffb7c936 o )  ) ) ( type_85a8c775_0bf9_4db2_ad76_6da70a01839d_Class13 ( obj_7ab2646e_8938_4666_a6f8_6b30ffb7c936 o )  ) ) ( type_85a8c775_0bf9_4db2_ad76_6da70a01839d_Class0 ( obj_7ab2646e_8938_4666_a6f8_6b30ffb7c936 o )  ) ) ( type_85a8c775_0bf9_4db2_ad76_6da70a01839d_Class21 ( obj_7ab2646e_8938_4666_a6f8_6b30ffb7c936 o )  ) )):named c16))
(assert (! (exists ((o Int)) (and (and ( type_85a8c775_0bf9_4db2_ad76_6da70a01839d_Class24 ( obj_7ab2646e_8938_4666_a6f8_6b30ffb7c936 o )  )  ( type_85a8c775_0bf9_4db2_ad76_6da70a01839d_Class25 ( obj_7ab2646e_8938_4666_a6f8_6b30ffb7c936 o )  ) ) ( type_85a8c775_0bf9_4db2_ad76_6da70a01839d_Class0 ( obj_7ab2646e_8938_4666_a6f8_6b30ffb7c936 o )  ) )):named c17))
(assert (! (exists ((o Int)) ( type_85a8c775_0bf9_4db2_ad76_6da70a01839d_Class25 ( obj_7ab2646e_8938_4666_a6f8_6b30ffb7c936 o )  ) ):named c18))
(assert (! (exists ((o Int)) ( type_85a8c775_0bf9_4db2_ad76_6da70a01839d_Class26 ( obj_7ab2646e_8938_4666_a6f8_6b30ffb7c936 o )  ) ):named c19))
(assert (! (exists ((o Int)) (and (and ( type_85a8c775_0bf9_4db2_ad76_6da70a01839d_Class27 ( obj_7ab2646e_8938_4666_a6f8_6b30ffb7c936 o )  )  ( type_85a8c775_0bf9_4db2_ad76_6da70a01839d_Class25 ( obj_7ab2646e_8938_4666_a6f8_6b30ffb7c936 o )  ) ) ( type_85a8c775_0bf9_4db2_ad76_6da70a01839d_Class17 ( obj_7ab2646e_8938_4666_a6f8_6b30ffb7c936 o )  ) )):named c20))
(assert (! (exists ((o Int)) (and (and (and (and ( type_85a8c775_0bf9_4db2_ad76_6da70a01839d_Class28 ( obj_7ab2646e_8938_4666_a6f8_6b30ffb7c936 o )  )  ( type_85a8c775_0bf9_4db2_ad76_6da70a01839d_Class25 ( obj_7ab2646e_8938_4666_a6f8_6b30ffb7c936 o )  ) ) ( type_85a8c775_0bf9_4db2_ad76_6da70a01839d_Class13 ( obj_7ab2646e_8938_4666_a6f8_6b30ffb7c936 o )  ) ) ( type_85a8c775_0bf9_4db2_ad76_6da70a01839d_Class0 ( obj_7ab2646e_8938_4666_a6f8_6b30ffb7c936 o )  ) ) ( type_85a8c775_0bf9_4db2_ad76_6da70a01839d_Class21 ( obj_7ab2646e_8938_4666_a6f8_6b30ffb7c936 o )  ) )):named c21))
(assert (! (exists ((o Int)) ( type_85a8c775_0bf9_4db2_ad76_6da70a01839d_Class29 ( obj_7ab2646e_8938_4666_a6f8_6b30ffb7c936 o )  ) ):named c22))
(assert (! (exists ((o Int)) ( type_85a8c775_0bf9_4db2_ad76_6da70a01839d_Class3 ( obj_7ab2646e_8938_4666_a6f8_6b30ffb7c936 o )  ) ):named c23))
(assert (! (exists ((o Int)) (and (and (and (and ( type_85a8c775_0bf9_4db2_ad76_6da70a01839d_Class4 ( obj_7ab2646e_8938_4666_a6f8_6b30ffb7c936 o )  )  ( type_85a8c775_0bf9_4db2_ad76_6da70a01839d_Class25 ( obj_7ab2646e_8938_4666_a6f8_6b30ffb7c936 o )  ) ) ( type_85a8c775_0bf9_4db2_ad76_6da70a01839d_Class24 ( obj_7ab2646e_8938_4666_a6f8_6b30ffb7c936 o )  ) ) ( type_85a8c775_0bf9_4db2_ad76_6da70a01839d_Class6 ( obj_7ab2646e_8938_4666_a6f8_6b30ffb7c936 o )  ) ) ( type_85a8c775_0bf9_4db2_ad76_6da70a01839d_Class0 ( obj_7ab2646e_8938_4666_a6f8_6b30ffb7c936 o )  ) )):named c24))
(assert (! (exists ((o Int)) ( type_85a8c775_0bf9_4db2_ad76_6da70a01839d_Class5 ( obj_7ab2646e_8938_4666_a6f8_6b30ffb7c936 o )  ) ):named c25))
(assert (! (exists ((o Int)) (and (and (and ( type_85a8c775_0bf9_4db2_ad76_6da70a01839d_Class6 ( obj_7ab2646e_8938_4666_a6f8_6b30ffb7c936 o )  )  ( type_85a8c775_0bf9_4db2_ad76_6da70a01839d_Class25 ( obj_7ab2646e_8938_4666_a6f8_6b30ffb7c936 o )  ) ) ( type_85a8c775_0bf9_4db2_ad76_6da70a01839d_Class24 ( obj_7ab2646e_8938_4666_a6f8_6b30ffb7c936 o )  ) ) ( type_85a8c775_0bf9_4db2_ad76_6da70a01839d_Class0 ( obj_7ab2646e_8938_4666_a6f8_6b30ffb7c936 o )  ) )):named c26))
(assert (! (exists ((o Int)) ( type_85a8c775_0bf9_4db2_ad76_6da70a01839d_Class7 ( obj_7ab2646e_8938_4666_a6f8_6b30ffb7c936 o )  ) ):named c27))
(assert (! (exists ((o Int)) ( type_85a8c775_0bf9_4db2_ad76_6da70a01839d_Class8 ( obj_7ab2646e_8938_4666_a6f8_6b30ffb7c936 o )  ) ):named c28))
(assert (! (exists ((o Int)) ( type_85a8c775_0bf9_4db2_ad76_6da70a01839d_Class9 ( obj_7ab2646e_8938_4666_a6f8_6b30ffb7c936 o )  ) ):named c29))

 ;end of formula 